<?xml version = "1.0" standalone="yes"?>
<!-- This file has been generated by DOcplex version 2.23.222  -->
<CPLEXSolution version="1.0">
 <header
   problemName="CVRP"
   objectiveValue="13246"
  />
 <variables>
  <variable name="x_0_1" index="0" value="1.00000"/>
  <variable name="x_0_2" index="1" value="1.00000"/>
  <variable name="x_0_3" index="2" value="1.00000"/>
  <variable name="x_0_4" index="3" value="1.00000"/>
  <variable name="x_0_5" index="4" value="1.00000"/>
  <variable name="x_0_8" index="7" value="1.00000"/>
  <variable name="x_0_10" index="9" value="1.00000"/>
  <variable name="x_0_12" index="11" value="1.00000"/>
  <variable name="x_1_9" index="20" value="1.00000"/>
  <variable name="x_2_7" index="30" value="1.00000"/>
  <variable name="x_3_0" index="36" value="1.00000"/>
  <variable name="x_4_0" index="48" value="1.00000"/>
  <variable name="x_5_0" index="60" value="1.00000"/>
  <variable name="x_6_0" index="72" value="1.00000"/>
  <variable name="x_7_0" index="84" value="1.00000"/>
  <variable name="x_8_0" index="96" value="1.00000"/>
  <variable name="x_9_0" index="108" value="1.00000"/>
  <variable name="x_10_11" index="130" value="1.00000"/>
  <variable name="x_11_6" index="138" value="1.00000"/>
  <variable name="x_12_0" index="144" value="1.00000"/>
  <variable name="u_1" index="156" value="18.00000"/>
  <variable name="u_2" index="157" value="12.00000"/>
  <variable name="u_3" index="158" value="77.00000"/>
  <variable name="u_4" index="159" value="77.00000"/>
  <variable name="u_5" index="160" value="75.00000"/>
  <variable name="u_6" index="161" value="76.00000"/>
  <variable name="u_7" index="162" value="77.00000"/>
  <variable name="u_8" index="163" value="77.00000"/>
  <variable name="u_9" index="164" value="77.00000"/>
  <variable name="u_10" index="165" value="14.00000"/>
  <variable name="u_11" index="166" value="47.00000"/>
  <variable name="u_12" index="167" value="72.00000"/>
 </variables>
</CPLEXSolution>
